src/RACER/swarm_exploration/utils/lkh_mtsp_solver/resource/amtsp_3.atsp
NAME : amtsp
TYPE : ATSP
DIMENSION : 5
EDGE_WEIGHT_TYPE : EXPLICIT
EDGE_WEIGHT_FORMAT : FULL_MATRIX
EDGE_WEIGHT_SECTION
100000 -100000 100000 100000 100000 
100000 100000 1669 1439 100000 
0 0 100000 340 425 
0 0 340 100000 263 
-100000 100000 425 263 100000 
